<number of tasks>
250

<cycle time>
1000

<order strength>
0.599


<task times>
1 139
2 61
3 465
4 165
5 269
6 122
7 147
8 572
9 520
10 243
11 205
12 252
13 278
14 178
15 238
16 158
17 51
18 233
19 42
20 102
21 189
22 375
23 91
24 265
25 132
26 181
27 136
28 533
29 81
30 230
31 214
32 488
33 502
34 71
35 248
36 59
37 196
38 518
39 550
40 128
41 73
42 100
43 245
44 478
45 218
46 329
47 443
48 82
49 307
50 109
51 78
52 476
53 48
54 62
55 421
56 136
57 379
58 274
59 42
60 54
61 81
62 60
63 450
64 90
65 31
66 133
67 68
68 238
69 167
70 470
71 194
72 231
73 110
74 84
75 92
76 139
77 212
78 314
79 277
80 164
81 91
82 119
83 201
84 94
85 569
86 268
87 147
88 188
89 59
90 342
91 309
92 276
93 145
94 109
95 95
96 31
97 63
98 46
99 29
100 290
101 33
102 41
103 405
104 78
105 132
106 158
107 155
108 420
109 250
110 31
111 185
112 119
113 137
114 42
115 290
116 45
117 81
118 268
119 281
120 114
121 148
122 380
123 492
124 286
125 127
126 429
127 186
128 44
129 262
130 202
131 121
132 288
133 94
134 25
135 203
136 175
137 395
138 202
139 98
140 34
141 32
142 320
143 95
144 329
145 378
146 378
147 255
148 545
149 269
150 260
151 219
152 194
153 83
154 245
155 526
156 247
157 228
158 244
159 61
160 38
161 52
162 49
163 226
164 98
165 368
166 34
167 192
168 296
169 290
170 543
171 416
172 27
173 472
174 117
175 462
176 183
177 339
178 177
179 135
180 316
181 41
182 165
183 513
184 47
185 90
186 98
187 33
188 206
189 547
190 121
191 58
192 61
193 55
194 202
195 195
196 247
197 74
198 93
199 355
200 220
201 381
202 181
203 243
204 145
205 338
206 40
207 20
208 392
209 295
210 282
211 316
212 126
213 192
214 153
215 279
216 25
217 243
218 312
219 63
220 254
221 226
222 268
223 49
224 99
225 69
226 80
227 253
228 114
229 190
230 233
231 446
232 508
233 168
234 136
235 440
236 502
237 246
238 149
239 181
240 73
241 81
242 224
243 375
244 39
245 175
246 509
247 238
248 124
249 136
250 194

<precedence relations>
1,140
2,57
3,169
4,241
5,31
6,116
7,191
8,12
8,13
8,14
9,10
9,11
9,14
9,15
9,16
9,17
9,18
9,19
9,20
9,21
10,57
11,31
12,31
13,25
14,25
15,25
16,25
17,25
18,25
19,116
20,23
20,24
20,26
20,27
21,22
21,46
21,63
21,86
22,169
23,31
24,31
25,28
25,30
25,32
25,33
25,34
25,35
26,29
26,31
26,36
27,28
27,162
28,173
29,87
30,169
31,37
31,41
31,42
31,43
31,44
32,37
32,61
32,70
33,37
33,40
33,46
33,72
34,37
34,72
35,37
35,38
35,39
35,45
35,46
36,38
37,57
38,57
39,57
40,241
41,48
41,51
42,49
42,50
42,52
42,92
43,53
43,55
43,62
44,54
44,118
44,129
45,188
46,47
46,56
46,158
46,161
47,140
48,57
49,217
50,191
51,56
51,163
52,62
52,93
53,56
53,57
53,58
53,60
53,61
54,58
54,59
54,84
54,117
55,76
56,140
57,65
57,66
57,67
57,68
57,69
57,71
58,142
59,191
60,63
60,70
61,64
61,72
62,79
62,107
63,87
64,87
65,74
65,76
66,73
66,85
67,73
67,110
68,92
68,108
69,75
69,118
70,169
71,107
71,110
71,134
72,87
73,140
74,169
75,80
75,81
75,85
76,77
76,78
76,79
76,81
76,82
76,83
76,84
77,173
78,87
79,87
80,217
81,169
82,241
83,116
84,86
84,92
84,138
84,143
84,160
85,88
85,89
85,90
85,91
85,92
85,93
85,145
86,173
87,94
87,95
87,96
87,97
87,98
87,99
87,100
87,101
87,102
87,103
87,104
87,105
87,106
87,108
88,140
89,217
90,116
91,107
91,125
91,131
92,181
93,110
94,110
94,112
95,109
95,110
97,113
97,114
97,144
97,200
98,109
99,109
100,110
101,109
101,144
101,145
102,116
102,135
103,160
103,161
104,109
105,109
105,110
105,128
106,217
107,116
108,111
109,116
110,116
111,114
111,115
111,118
112,113
112,117
113,169
114,169
115,142
116,119
116,120
116,121
116,122
116,123
116,124
116,133
117,119
117,127
118,125
118,126
119,169
120,141
120,169
121,132
121,241
122,136
123,129
123,190
124,142
125,130
125,133
125,135
126,131
126,134
127,128
127,130
127,132
127,145
128,140
129,140
130,142
131,142
132,191
133,188
134,137
134,138
134,144
134,145
134,180
135,141
135,182
136,139
136,143
137,173
138,173
139,173
140,146
140,147
140,148
140,149
141,217
142,150
142,151
142,152
142,153
142,154
143,161
145,173
145,189
146,155
146,182
147,155
147,168
149,179
149,182
151,155
153,156
154,157
154,238
155,159
155,160
155,171
156,157
156,158
156,159
156,161
157,173
158,169
159,169
160,166
161,162
162,163
162,164
162,165
162,166
163,169
164,188
165,167
165,168
165,171
165,172
166,170
167,173
168,217
169,174
169,175
169,176
169,177
169,178
169,179
169,189
170,188
171,173
171,181
171,188
171,217
172,180
172,182
172,222
173,183
173,184
173,185
173,186
173,187
173,242
174,191
175,203
179,188
180,190
180,216
181,202
182,189
183,191
184,239
184,241
185,200
185,220
185,222
185,250
187,218
188,192
188,193
188,194
188,195
188,196
188,197
188,198
188,199
189,201
190,202
190,238
191,204
191,205
191,206
191,207
191,208
191,209
191,210
191,211
191,212
191,213
191,214
194,216
195,222
195,239
197,243
198,218
201,203
202,215
203,217
206,218
208,220
209,220
210,219
211,221
213,222
217,223
217,224
217,225
217,226
217,227
217,228
217,229
217,230
217,231
217,232
217,233
217,234
217,235
219,236
221,237
226,250
228,238
233,240
234,239
238,241
240,242
240,243
241,244
241,245
241,246
241,247
241,248
241,249
242,250

<end>
